50 900
420 752 42 752 470 336 470 564 42 94 84 752 940 564 168 84 752 940 94 940 84 376 470 126 378 94 188 168 126 336 42 752 470 378 378 752 42 188 294 658 252 420 126 470 282 84 470 282 294 470 
410 720 41 720 450 328 450 540 41 90 82 720 900 540 164 82 720 900 90 900 82 360 450 123 369 90 180 164 123 328 41 720 450 369 369 720 41 180 287 630 246 410 123 450 270 82 450 270 287 450 
